results/x-long/X-n190-k8.vrp_seed-13.out
16981	1015
